10J3M/DAT/10J3MUTL-7.dat
10 3
41.6885 41.6885
34.1305 34.1305
17.3152 17.3152
34.5569 34.5569
49.1429 49.1429
28.9345 28.9345
42.2784 42.2784
22.1825 22.1825
19.8327 19.8327
36.9778 36.9778
81.76