10J3M/SOL/10J3MUTL-7.sol
solution status: optimal solution found
objective value:                              64.0127
x#1#2                                               1 	(obj:0)
x#2#1                                               1 	(obj:0)
x#3#2                               0.672841660293677 	(obj:0)
x#4#2                                               1 	(obj:0)
x#5#3                                               1 	(obj:0)
x#6#2                                               1 	(obj:0)
x#7#3                               0.326725361354931 	(obj:0)
x#8#1                                               1 	(obj:0)
x#9#1                                               1 	(obj:0)
x#10#1                              0.527982247364124 	(obj:0)
z                                             64.0127 	(obj:1)
